instances/shortest_path/discrete/shortest_path_4_1.lp
\ Model nohadani_4_1
\ LP format - for model browsing. Use MPS format to capture full model detail.
\ Signature: 0x26b3cf7f3313a25f
Minimize
  95.524865872714 y[0,2] + 50.32891812864648 y[0,3]
   + 48.46648326421054 y[1,2] + 49.24428900898052 y[1,3]
   + 95.524865872714 y[2,0] + 48.46648326421054 y[2,1]
   + 64.51356446515724 y[2,3] + 50.32891812864648 y[3,0]
   + 49.24428900898052 y[3,1] + 64.51356446515724 y[3,2] + x[0,2] + x[0,3]
   + x[1,2] + x[1,3] + x[2,0] + x[2,1] + x[2,3] + x[3,0] + x[3,1] + x[3,2]
   + 9.552486587271401 r[0,2] + 5.032891812864648 r[0,3]
   + 4.846648326421054 r[1,2] + 4.924428900898053 r[1,3]
   + 9.552486587271401 r[2,0] + 4.846648326421054 r[2,1]
   + 6.451356446515724 r[2,3] + 5.032891812864648 r[3,0]
   + 4.924428900898053 r[3,1] + 6.451356446515724 r[3,2]
Subject To
 flow_cons_inner_nodes[2]: y[0,2] + y[1,2] - y[2,0] - y[2,1] - y[2,3]
   + y[3,2] = 0
 flow_cons_inner_nodes[3]: y[0,3] + y[1,3] + y[2,3] - y[3,0] - y[3,1]
   - y[3,2] = 0
 flow_cons_source: y[0,2] + y[0,3] - y[2,0] - y[3,0] = 1
 flow_cons_target: - y[1,2] - y[1,3] + y[2,1] + y[3,1] = 1
 primal_lower: 2.669211840793877 x[0,2] + 2.516768424823789 x[0,3]
   + 7.064575451797666 x[1,2] + 1.996436769243512 x[1,3]
   + 2.084337669988585 x[2,0] + 3.909662330676108 x[2,1]
   + 7.524723618583916 x[2,3] + 7.294730527369993 x[3,0]
   + 5.420046533994527 x[3,1] + 7.240860976801742 x[3,2] + 89 u[0,2]
   + 5 u[0,3] + 79 u[1,2] + 16 u[1,3] + 25 u[2,0] + 47 u[2,1] + 66 u[2,3]
   + 85 u[3,0] + 46 u[3,1] + 75 u[3,2] <= 89
 mccormick1[0,2]: - u[0,2] + r[0,2] <= 0
 mccormick1[0,3]: - u[0,3] + r[0,3] <= 0
 mccormick1[1,2]: - u[1,2] + r[1,2] <= 0
 mccormick1[1,3]: - u[1,3] + r[1,3] <= 0
 mccormick1[2,0]: - u[2,0] + r[2,0] <= 0
 mccormick1[2,1]: - u[2,1] + r[2,1] <= 0
 mccormick1[2,3]: - u[2,3] + r[2,3] <= 0
 mccormick1[3,0]: - u[3,0] + r[3,0] <= 0
 mccormick1[3,1]: - u[3,1] + r[3,1] <= 0
 mccormick1[3,2]: - u[3,2] + r[3,2] <= 0
 mccormick2[0,2]: - y[0,2] + r[0,2] <= 0
 mccormick2[0,3]: - y[0,3] + r[0,3] <= 0
 mccormick2[1,2]: - y[1,2] + r[1,2] <= 0
 mccormick2[1,3]: - y[1,3] + r[1,3] <= 0
 mccormick2[2,0]: - y[2,0] + r[2,0] <= 0
 mccormick2[2,1]: - y[2,1] + r[2,1] <= 0
 mccormick2[2,3]: - y[2,3] + r[2,3] <= 0
 mccormick2[3,0]: - y[3,0] + r[3,0] <= 0
 mccormick2[3,1]: - y[3,1] + r[3,1] <= 0
 mccormick2[3,2]: - y[3,2] + r[3,2] <= 0
 mccormick3[0,2]: - y[0,2] - u[0,2] + r[0,2] >= -1
 mccormick3[0,3]: - y[0,3] - u[0,3] + r[0,3] >= -1
 mccormick3[1,2]: - y[1,2] - u[1,2] + r[1,2] >= -1
 mccormick3[1,3]: - y[1,3] - u[1,3] + r[1,3] >= -1
 mccormick3[2,0]: - y[2,0] - u[2,0] + r[2,0] >= -1
 mccormick3[2,1]: - y[2,1] - u[2,1] + r[2,1] >= -1
 mccormick3[2,3]: - y[2,3] - u[2,3] + r[2,3] >= -1
 mccormick3[3,0]: - y[3,0] - u[3,0] + r[3,0] >= -1
 mccormick3[3,1]: - y[3,1] - u[3,1] + r[3,1] >= -1
 mccormick3[3,2]: - y[3,2] - u[3,2] + r[3,2] >= -1
Bounds
Binaries
 y[0,2] y[0,3] y[1,2] y[1,3] y[2,0] y[2,1] y[2,3] y[3,0] y[3,1] y[3,2]
 x[0,2] x[0,3] x[1,2] x[1,3] x[2,0] x[2,1] x[2,3] x[3,0] x[3,1] x[3,2]
 u[0,2] u[0,3] u[1,2] u[1,3] u[2,0] u[2,1] u[2,3] u[3,0] u[3,1] u[3,2]
 r[0,2] r[0,3] r[1,2] r[1,3] r[2,0] r[2,1] r[2,3] r[3,0] r[3,1] r[3,2]
End
