instances/shortest_path/discrete/shortest_path_4_1.mps
* Signature: 0x26b3cf7f3314c38f
NAME nohadani_4_1
ROWS
 N  OBJ
 E  flow_cons_inner_nodes[2]
 E  flow_cons_inner_nodes[3]
 E  flow_cons_source
 E  flow_cons_target
 L  primal_lower
 L  mccormick1[0,2]
 L  mccormick1[0,3]
 L  mccormick1[1,2]
 L  mccormick1[1,3]
 L  mccormick1[2,0]
 L  mccormick1[2,1]
 L  mccormick1[2,3]
 L  mccormick1[3,0]
 L  mccormick1[3,1]
 L  mccormick1[3,2]
 L  mccormick2[0,2]
 L  mccormick2[0,3]
 L  mccormick2[1,2]
 L  mccormick2[1,3]
 L  mccormick2[2,0]
 L  mccormick2[2,1]
 L  mccormick2[2,3]
 L  mccormick2[3,0]
 L  mccormick2[3,1]
 L  mccormick2[3,2]
 G  mccormick3[0,2]
 G  mccormick3[0,3]
 G  mccormick3[1,2]
 G  mccormick3[1,3]
 G  mccormick3[2,0]
 G  mccormick3[2,1]
 G  mccormick3[2,3]
 G  mccormick3[3,0]
 G  mccormick3[3,1]
 G  mccormick3[3,2]
COLUMNS
    MARKER    'MARKER'                 'INTORG'
    y[0,2]    OBJ       26.93
    y[0,2]    flow_cons_inner_nodes[2]  1
    y[0,2]    flow_cons_source  1
    y[0,2]    mccormick2[0,2]  -1
    y[0,2]    mccormick3[0,2]  -1
    y[0,3]    OBJ       65.19
    y[0,3]    flow_cons_inner_nodes[3]  1
    y[0,3]    flow_cons_source  1
    y[0,3]    mccormick2[0,3]  -1
    y[0,3]    mccormick3[0,3]  -1
    y[1,2]    OBJ       80.53
    y[1,2]    flow_cons_inner_nodes[2]  1
    y[1,2]    flow_cons_target  -1
    y[1,2]    mccormick2[1,2]  -1
    y[1,2]    mccormick3[1,2]  -1
    y[1,3]    OBJ       43.68
    y[1,3]    flow_cons_inner_nodes[3]  1
    y[1,3]    flow_cons_target  -1
    y[1,3]    mccormick2[1,3]  -1
    y[1,3]    mccormick3[1,3]  -1
    y[2,0]    OBJ       26.93
    y[2,0]    flow_cons_inner_nodes[2]  -1
    y[2,0]    flow_cons_source  -1
    y[2,0]    mccormick2[2,0]  -1
    y[2,0]    mccormick3[2,0]  -1
    y[2,1]    OBJ       80.53
    y[2,1]    flow_cons_inner_nodes[2]  -1
    y[2,1]    flow_cons_target  1
    y[2,1]    mccormick2[2,1]  -1
    y[2,1]    mccormick3[2,1]  -1
    y[2,3]    OBJ       38.95
    y[2,3]    flow_cons_inner_nodes[2]  -1
    y[2,3]    flow_cons_inner_nodes[3]  1
    y[2,3]    mccormick2[2,3]  -1
    y[2,3]    mccormick3[2,3]  -1
    y[3,0]    OBJ       65.19
    y[3,0]    flow_cons_inner_nodes[3]  -1
    y[3,0]    flow_cons_source  -1
    y[3,0]    mccormick2[3,0]  -1
    y[3,0]    mccormick3[3,0]  -1
    y[3,1]    OBJ       43.68
    y[3,1]    flow_cons_inner_nodes[3]  -1
    y[3,1]    flow_cons_target  1
    y[3,1]    mccormick2[3,1]  -1
    y[3,1]    mccormick3[3,1]  -1
    y[3,2]    OBJ       38.95
    y[3,2]    flow_cons_inner_nodes[2]  1
    y[3,2]    flow_cons_inner_nodes[3]  -1
    y[3,2]    mccormick2[3,2]  -1
    y[3,2]    mccormick3[3,2]  -1
    x[0,2]    OBJ       1
    x[0,2]    primal_lower  1.06
    x[0,3]    OBJ       1
    x[0,3]    primal_lower  5.6
    x[1,2]    OBJ       1
    x[1,2]    primal_lower  1.23
    x[1,3]    OBJ       1
    x[1,3]    primal_lower  2.21
    x[2,0]    OBJ       1
    x[2,0]    primal_lower  3.01
    x[2,1]    OBJ       1
    x[2,1]    primal_lower  7.9
    x[2,3]    OBJ       1
    x[2,3]    primal_lower  6.13
    x[3,0]    OBJ       1
    x[3,0]    primal_lower  4.98
    x[3,1]    OBJ       1
    x[3,1]    primal_lower  0.27
    x[3,2]    OBJ       1
    x[3,2]    primal_lower  6.75
    u[0,2]    primal_lower  58
    u[0,2]    mccormick1[0,2]  -1
    u[0,2]    mccormick3[0,2]  -1
    u[0,3]    primal_lower  35
    u[0,3]    mccormick1[0,3]  -1
    u[0,3]    mccormick3[0,3]  -1
    u[1,2]    primal_lower  73
    u[1,2]    mccormick1[1,2]  -1
    u[1,2]    mccormick3[1,2]  -1
    u[1,3]    primal_lower  30
    u[1,3]    mccormick1[1,3]  -1
    u[1,3]    mccormick3[1,3]  -1
    u[2,0]    primal_lower  39
    u[2,0]    mccormick1[2,0]  -1
    u[2,0]    mccormick3[2,0]  -1
    u[2,1]    primal_lower  92
    u[2,1]    mccormick1[2,1]  -1
    u[2,1]    mccormick3[2,1]  -1
    u[2,3]    primal_lower  4
    u[2,3]    mccormick1[2,3]  -1
    u[2,3]    mccormick3[2,3]  -1
    u[3,0]    primal_lower  90
    u[3,0]    mccormick1[3,0]  -1
    u[3,0]    mccormick3[3,0]  -1
    u[3,1]    primal_lower  8
    u[3,1]    mccormick1[3,1]  -1
    u[3,1]    mccormick3[3,1]  -1
    u[3,2]    primal_lower  57
    u[3,2]    mccormick1[3,2]  -1
    u[3,2]    mccormick3[3,2]  -1
    r[0,2]    OBJ       2.693
    r[0,2]    mccormick1[0,2]  1
    r[0,2]    mccormick2[0,2]  1
    r[0,2]    mccormick3[0,2]  1
    r[0,3]    OBJ       6.519
    r[0,3]    mccormick1[0,3]  1
    r[0,3]    mccormick2[0,3]  1
    r[0,3]    mccormick3[0,3]  1
    r[1,2]    OBJ       8.053
    r[1,2]    mccormick1[1,2]  1
    r[1,2]    mccormick2[1,2]  1
    r[1,2]    mccormick3[1,2]  1
    r[1,3]    OBJ       4.368
    r[1,3]    mccormick1[1,3]  1
    r[1,3]    mccormick2[1,3]  1
    r[1,3]    mccormick3[1,3]  1
    r[2,0]    OBJ       2.693
    r[2,0]    mccormick1[2,0]  1
    r[2,0]    mccormick2[2,0]  1
    r[2,0]    mccormick3[2,0]  1
    r[2,1]    OBJ       8.053
    r[2,1]    mccormick1[2,1]  1
    r[2,1]    mccormick2[2,1]  1
    r[2,1]    mccormick3[2,1]  1
    r[2,3]    OBJ       3.8950000000000005e+00
    r[2,3]    mccormick1[2,3]  1
    r[2,3]    mccormick2[2,3]  1
    r[2,3]    mccormick3[2,3]  1
    r[3,0]    OBJ       6.519
    r[3,0]    mccormick1[3,0]  1
    r[3,0]    mccormick2[3,0]  1
    r[3,0]    mccormick3[3,0]  1
    r[3,1]    OBJ       4.368
    r[3,1]    mccormick1[3,1]  1
    r[3,1]    mccormick2[3,1]  1
    r[3,1]    mccormick3[3,1]  1
    r[3,2]    OBJ       3.8950000000000005e+00
    r[3,2]    mccormick1[3,2]  1
    r[3,2]    mccormick2[3,2]  1
    r[3,2]    mccormick3[3,2]  1
    MARKER    'MARKER'                 'INTEND'
RHS
    RHS1      flow_cons_source  1
    RHS1      flow_cons_target  1
    RHS1      primal_lower  92
    RHS1      mccormick3[0,2]  -1
    RHS1      mccormick3[0,3]  -1
    RHS1      mccormick3[1,2]  -1
    RHS1      mccormick3[1,3]  -1
    RHS1      mccormick3[2,0]  -1
    RHS1      mccormick3[2,1]  -1
    RHS1      mccormick3[2,3]  -1
    RHS1      mccormick3[3,0]  -1
    RHS1      mccormick3[3,1]  -1
    RHS1      mccormick3[3,2]  -1
BOUNDS
 BV BND1      y[0,2]  
 BV BND1      y[0,3]  
 BV BND1      y[1,2]  
 BV BND1      y[1,3]  
 BV BND1      y[2,0]  
 BV BND1      y[2,1]  
 BV BND1      y[2,3]  
 BV BND1      y[3,0]  
 BV BND1      y[3,1]  
 BV BND1      y[3,2]  
 BV BND1      x[0,2]  
 BV BND1      x[0,3]  
 BV BND1      x[1,2]  
 BV BND1      x[1,3]  
 BV BND1      x[2,0]  
 BV BND1      x[2,1]  
 BV BND1      x[2,3]  
 BV BND1      x[3,0]  
 BV BND1      x[3,1]  
 BV BND1      x[3,2]  
 BV BND1      u[0,2]  
 BV BND1      u[0,3]  
 BV BND1      u[1,2]  
 BV BND1      u[1,3]  
 BV BND1      u[2,0]  
 BV BND1      u[2,1]  
 BV BND1      u[2,3]  
 BV BND1      u[3,0]  
 BV BND1      u[3,1]  
 BV BND1      u[3,2]  
 BV BND1      r[0,2]  
 BV BND1      r[0,3]  
 BV BND1      r[1,2]  
 BV BND1      r[1,3]  
 BV BND1      r[2,0]  
 BV BND1      r[2,1]  
 BV BND1      r[2,3]  
 BV BND1      r[3,0]  
 BV BND1      r[3,1]  
 BV BND1      r[3,2]  
ENDATA
