instances/shortest_path/discrete/shortest_path_4_1.kp
42396
89

[2.6692118407938765 2.516768424823789 7.0645754517976656 1.9964367692435123 2.0843376699885847 3.909662330676108 7.524723618583916 7.294730527369993 5.420046533994527 7.240860976801742]

[89 5 79 16 25 47 66 85 46 75]
